benchmarks_vrp/CMT2/no_cluster/CMT2_10.vrp
NAME: CMT2_10
TYPE: CVRP
COMMENT: 835.26 - Cluster Nr.10
DIMENSION: 4
CAPACITY: 140
EDGE_WEIGHT_TYPE: EUC_2D
NODE_COORD_TYPE: TWOD_COORDS
NODE_COORD_SECTION: 
4 67 41
2 31 76
3 70 64
1 40 40
DEPOT_SECTION: 
1
-1
DEMAND_SECTION: 
1 0
3 24
2 25
4 16
EOF
