benchmarks_vrp/CMT2/no_cluster/CMT2_10.tour
NAME: CMT2_10 solution
TYPE: TOUR
TOUR_SECTION:
1 2 3 4 -1
-1
EOF